Geographic Exponential Decay
20 46 241 292 248 48 216 27 68 135 61 183 148 11 182 87 301 58 210 2 71
p edge 320 595
e 0 284 2.0
e 1 142 1.0
e 2 68 35.0
e 2 283 77.0
e 2 149 16.0
e 2 79 11.0
e 2 175 21.0
e 2 142 72.0
e 2 143 33.0
e 2 136 83.0
e 2 156 55.0
e 2 69 87.0
e 2 254 95.0
e 2 101 71.0
e 2 206 54.0
e 2 77 27.0
e 2 226 32.0
e 2 241 69.0
e 2 124 34.0
e 3 257 23.0
e 3 246 1.0
e 3 250 14.0
e 3 187 24.0
e 3 126 14.0
e 4 7 2.0
e 5 29 5.0
e 6 254 4.0
e 8 261 1.0
e 9 85 3.0
e 10 275 2.0
e 10 211 4.0
e 11 143 99.0
e 11 92 4.0
e 11 152 18.0
e 11 274 58.0
e 11 78 23.0
e 11 299 75.0
e 11 205 94.0
e 11 47 82.0
e 11 275 10.0
e 11 89 34.0
e 11 312 50.0
e 11 255 29.0
e 11 138 3.0
e 11 231 26.0
e 11 247 10.0
e 11 10 72.0
e 11 139 77.0
e 12 101 12.0
e 12 49 2.0
e 12 112 7.0
e 13 243 1.0
e 14 88 2.0
e 15 105 5.0
e 16 35 1.0
e 17 100 5.0
e 17 10 5.0
e 18 4 1.0
e 19 66 2.0
e 20 239 1.0
e 21 290 1.0
e 21 286 1.0
e 22 165 1.0
e 23 9 1.0
e 23 56 5.0
e 24 243 1.0
e 25 229 1.0
e 26 315 4.0
e 26 32 2.0
e 27 259 43.0
e 27 205 78.0
e 27 42 98.0
e 27 181 67.0
e 27 227 59.0
e 27 154 58.0
e 27 313 77.0
e 27 252 55.0
e 27 8 70.0
e 27 246 77.0
e 27 282 62.0
e 27 216 24.0
e 27 58 85.0
e 27 9 60.0
e 27 272 60.0
e 27 235 71.0
e 27 117 10.0
e 28 183 86.0
e 29 79 1.0
e 30 237 32.0
e 30 255 45.0
e 30 181 21.0
e 30 155 15.0
e 30 20 10.0
e 30 252 13.0
e 30 7 25.0
e 30 231 9.0
e 30 72 32.0
e 31 62 7.0
e 31 226 12.0
e 31 186 7.0
e 32 184 5.0
e 32 131 3.0
e 33 318 9.0
e 34 244 10.0
e 34 31 12.0
e 34 309 9.0
e 35 226 5.0
e 36 205 2.0
e 36 306 2.0
e 37 12 11.0
e 37 287 7.0
e 37 145 8.0
e 38 181 6.0
e 39 18 3.0
e 39 185 1.0
e 40 142 2.0
e 41 70 1.0
e 43 29 3.0
e 43 273 4.0
e 44 196 9.0
e 44 152 10.0
e 45 287 2.0
e 45 280 1.0
e 46 165 87.0
e 46 92 37.0
e 46 152 31.0
e 46 189 66.0
e 46 28 65.0
e 46 45 6.0
e 46 261 61.0
e 46 201 7.0
e 46 186 47.0
e 46 219 79.0
e 46 56 20.0
e 46 245 12.0
e 46 160 94.0
e 46 39 96.0
e 46 308 47.0
e 46 248 71.0
e 46 229 6.0
e 48 141 43.0
e 48 316 5.0
e 48 226 85.0
e 48 40 84.0
e 48 123 32.0
e 48 235 37.0
e 48 34 20.0
e 48 147 11.0
e 48 64 17.0
e 48 151 48.0
e 48 300 100.0
e 48 17 13.0
e 48 80 85.0
e 48 195 49.0
e 48 94 54.0
e 48 243 15.0
e 48 115 74.0
e 50 284 1.0
e 51 272 3.0
e 52 250 2.0
e 53 272 1.0
e 54 238 1.0
e 54 0 1.0
e 55 69 1.0
e 57 36 5.0
e 58 126 94.0
e 58 223 75.0
e 58 92 70.0
e 58 278 86.0
e 58 260 2.0
e 58 287 27.0
e 58 9 76.0
e 58 94 57.0
e 58 106 13.0
e 58 210 80.0
e 58 261 22.0
e 58 293 84.0
e 58 90 100.0
e 58 124 77.0
e 58 25 27.0
e 58 257 66.0
e 59 62 2.0
e 60 220 1.0
e 61 39 34.0
e 61 86 73.0
e 61 133 19.0
e 61 37 53.0
e 61 157 25.0
e 61 177 45.0
e 61 164 79.0
e 61 94 43.0
e 61 259 28.0
e 61 65 95.0
e 61 121 79.0
e 61 161 53.0
e 61 162 52.0
e 61 70 43.0
e 61 241 53.0
e 61 209 48.0
e 61 4 79.0
e 63 76 10.0
e 63 162 1.0
e 63 141 9.0
e 64 263 35.0
e 64 201 11.0
e 64 270 13.0
e 64 202 48.0
e 64 290 3.0
e 64 276 10.0
e 64 285 37.0
e 64 154 44.0
e 66 10 5.0
e 67 177 1.0
e 68 221 38.0
e 68 162 14.0
e 68 99 36.0
e 68 178 91.0
e 68 102 26.0
e 68 220 28.0
e 68 130 65.0
e 68 228 46.0
e 68 31 26.0
e 68 95 29.0
e 68 74 49.0
e 68 35 51.0
e 68 80 41.0
e 68 167 71.0
e 68 84 65.0
e 68 163 72.0
e 71 278 54.0
e 71 34 90.0
e 71 169 13.0
e 71 145 14.0
e 71 79 91.0
e 71 216 56.0
e 71 248 31.0
e 71 251 25.0
e 71 70 84.0
e 71 37 20.0
e 71 176 9.0
e 71 195 15.0
e 71 280 60.0
e 71 107 15.0
e 71 281 85.0
e 71 109 70.0
e 71 220 89.0
e 73 123 1.0
e 73 59 1.0
e 73 65 4.0
e 74 173 1.0
e 75 109 5.0
e 81 123 1.0
e 82 124 1.0
e 83 171 1.0
e 83 147 5.0
e 83 122 4.0
e 85 38 1.0
e 86 188 6.0
e 87 113 43.0
e 87 117 28.0
e 87 75 19.0
e 87 314 11.0
e 87 89 80.0
e 87 21 68.0
e 87 90 89.0
e 87 281 26.0
e 87 227 57.0
e 87 213 26.0
e 87 19 83.0
e 87 167 53.0
e 87 192 2.0
e 87 105 80.0
e 87 13 55.0
e 87 8 63.0
e 87 198 59.0
e 91 45 4.0
e 92 47 24.0
e 92 254 19.0
e 93 190 1.0
e 93 54 1.0
e 95 52 1.0
e 96 291 11.0
e 96 288 11.0
e 96 109 8.0
e 97 211 1.0
e 98 317 1.0
e 98 142 2.0
e 99 194 3.0
e 102 212 8.0
e 102 153 3.0
e 103 225 1.0
e 104 237 2.0
e 107 82 1.0
e 108 24 2.0
e 110 47 1.0
e 111 1 5.0
e 111 310 4.0
e 112 153 1.0
e 114 125 1.0
e 116 32 3.0
e 118 85 1.0
e 119 312 2.0
e 120 271 1.0
e 122 143 1.0
e 127 20 2.0
e 128 274 5.0
e 128 261 17.0
e 128 203 7.0
e 129 145 1.0
e 130 99 6.0
e 130 274 1.0
e 132 92 24.0
e 132 75 19.0
e 132 258 24.0
e 132 213 14.0
e 132 267 12.0
e 133 214 11.0
e 133 196 15.0
e 133 1 14.0
e 133 313 7.0
e 134 81 3.0
e 134 13 1.0
e 135 143 81.0
e 135 227 97.0
e 135 4 91.0
e 135 228 25.0
e 135 200 61.0
e 135 224 81.0
e 135 229 11.0
e 135 311 92.0
e 135 139 67.0
e 135 186 67.0
e 135 66 16.0
e 135 140 76.0
e 135 225 94.0
e 135 195 12.0
e 135 222 59.0
e 135 293 28.0
e 135 308 36.0
e 136 59 8.0
e 136 304 3.0
e 137 88 1.0
e 140 0 6.0
e 144 103 6.0
e 144 67 19.0
e 144 37 8.0
e 144 150 19.0
e 144 114 1.0
e 146 193 3.0
e 148 251 3.0
e 148 156 2.0
e 148 167 76.0
e 148 194 62.0
e 148 76 54.0
e 148 214 22.0
e 148 280 32.0
e 148 168 16.0
e 148 213 18.0
e 148 299 63.0
e 148 14 35.0
e 148 171 21.0
e 148 227 65.0
e 148 264 20.0
e 148 112 54.0
e 148 138 31.0
e 148 137 58.0
e 158 32 11.0
e 158 13 4.0
e 159 70 1.0
e 160 39 5.0
e 160 102 2.0
e 160 291 1.0
e 160 12 22.0
e 163 185 4.0
e 166 233 11.0
e 166 222 12.0
e 166 181 8.0
e 170 123 1.0
e 172 275 3.0
e 172 135 26.0
e 174 166 3.0
e 176 40 11.0
e 176 135 73.0
e 178 310 12.0
e 178 18 15.0
e 178 171 8.0
e 178 245 9.0
e 179 38 1.0
e 180 284 6.0
e 180 229 1.0
e 182 284 82.0
e 182 230 76.0
e 182 183 25.0
e 182 61 31.0
e 182 278 87.0
e 182 77 28.0
e 182 110 21.0
e 182 55 99.0
e 182 181 66.0
e 182 158 58.0
e 182 107 20.0
e 182 227 39.0
e 182 45 9.0
e 182 79 27.0
e 182 74 79.0
e 182 169 23.0
e 182 254 87.0
e 183 11 50.0
e 183 5 31.0
e 183 248 68.0
e 183 167 79.0
e 183 6 37.0
e 183 210 4.0
e 183 205 88.0
e 183 272 61.0
e 183 125 23.0
e 183 164 53.0
e 183 178 72.0
e 183 18 48.0
e 183 236 66.0
e 183 207 94.0
e 183 58 66.0
e 189 212 5.0
e 191 209 1.0
e 193 107 1.0
e 196 243 9.0
e 197 316 1.0
e 198 43 6.0
e 199 266 2.0
e 200 182 64.0
e 202 53 1.0
e 204 218 3.0
e 204 31 7.0
e 205 174 9.0
e 208 228 1.0
e 210 258 28.0
e 210 270 74.0
e 210 47 33.0
e 210 49 27.0
e 210 11 31.0
e 210 100 29.0
e 210 163 96.0
e 210 250 22.0
e 210 42 72.0
e 210 215 88.0
e 210 292 39.0
e 210 81 49.0
e 210 69 33.0
e 210 99 24.0
e 210 232 34.0
e 216 166 28.0
e 216 225 15.0
e 216 174 50.0
e 216 242 53.0
e 216 63 8.0
e 216 208 22.0
e 216 114 87.0
e 216 302 96.0
e 216 160 19.0
e 216 212 48.0
e 216 23 96.0
e 216 234 40.0
e 216 228 22.0
e 216 64 94.0
e 216 200 3.0
e 217 227 19.0
e 223 212 43.0
e 223 231 20.0
e 223 116 36.0
e 223 52 48.0
e 223 103 29.0
e 223 224 6.0
e 223 61 68.0
e 223 23 15.0
e 230 147 5.0
e 234 194 11.0
e 234 236 3.0
e 240 296 14.0
e 240 77 1.0
e 241 220 57.0
e 241 266 70.0
e 241 277 30.0
e 241 234 33.0
e 241 17 19.0
e 241 239 62.0
e 241 314 1.0
e 241 282 75.0
e 241 20 13.0
e 241 144 11.0
e 241 235 26.0
e 241 19 83.0
e 241 227 78.0
e 241 261 72.0
e 241 36 62.0
e 242 148 67.0
e 242 38 7.0
e 248 170 49.0
e 248 241 5.0
e 248 101 39.0
e 248 36 89.0
e 248 83 48.0
e 248 67 25.0
e 248 68 11.0
e 248 124 25.0
e 248 41 16.0
e 248 85 37.0
e 248 313 2.0
e 248 316 80.0
e 248 64 60.0
e 248 257 13.0
e 249 71 78.0
e 251 172 21.0
e 251 176 8.0
e 251 120 1.0
e 252 156 3.0
e 253 12 11.0
e 255 14 4.0
e 256 262 1.0
e 256 93 2.0
e 260 118 5.0
e 265 110 2.0
e 268 166 15.0
e 268 14 19.0
e 268 285 17.0
e 268 303 20.0
e 268 257 1.0
e 269 127 1.0
e 273 69 1.0
e 277 5 5.0
e 277 213 8.0
e 279 6 2.0
e 285 6 4.0
e 289 146 4.0
e 289 308 6.0
e 292 42 29.0
e 292 310 13.0
e 292 32 32.0
e 292 182 56.0
e 292 102 4.0
e 292 80 69.0
e 292 196 9.0
e 292 156 18.0
e 292 268 47.0
e 292 278 3.0
e 292 219 27.0
e 292 85 15.0
e 292 304 92.0
e 292 302 1.0
e 292 15 73.0
e 292 97 53.0
e 294 295 20.0
e 294 287 21.0
e 294 73 2.0
e 294 200 11.0
e 294 23 11.0
e 295 232 7.0
e 295 52 2.0
e 296 215 4.0
e 296 11 84.0
e 296 68 12.0
e 296 92 12.0
e 297 300 1.0
e 298 58 70.0
e 298 295 5.0
e 300 252 7.0
e 300 63 18.0
e 300 43 16.0
e 301 204 22.0
e 301 182 59.0
e 301 130 87.0
e 301 53 77.0
e 301 119 14.0
e 301 49 19.0
e 301 61 58.0
e 301 242 80.0
e 301 71 38.0
e 301 269 2.0
e 301 110 42.0
e 301 296 70.0
e 301 46 78.0
e 301 106 36.0
e 301 168 38.0
e 301 111 99.0
e 301 139 79.0
e 305 33 2.0
e 305 317 6.0
e 306 62 5.0
e 306 43 4.0
e 307 73 4.0
e 311 200 5.0
e 311 267 10.0
e 315 291 4.0
e 318 117 11.0
e 318 164 1.0
e 319 186 2.0
